NAME          ClpDefau  FREE
ROWS
 N  OBJROW
 L  ZMUNI1_PCT
 L  ZMUNI2_PCT
 L  ZMUNI3_PCT
 L  ZMUNI4_PCT
 L  ZMUNI5_PCT
 L  ZMUNI6_PCT
 L  ZMUNI7_PCT
 L  ZMUNI8_PCT
 L  ZMUNI9_PCT
COLUMNS
    QMUNI1 OBJROW 1.          
    QMUNI1 ZMUNI1_PCT 28436.2793  
    QMUNI1 ZMUNI2_PCT 1636.6959   
    QMUNI1 ZMUNI3_PCT 4178.2379   
    QMUNI1 ZMUNI4_PCT 3023.86284  
    QMUNI1 ZMUNI5_PCT 610.733     
    QMUNI1 ZMUNI6_PCT 698.0896    
    QMUNI1 ZMUNI7_PCT 1626.0147   
    QMUNI1 ZMUNI8_PCT 1127.0523   
    QMUNI1 ZMUNI9_PCT 97.0841     
    QMUNI2 OBJROW 1.          
    QMUNI2 ZMUNI1_PCT 1357.3646   
    QMUNI2 ZMUNI2_PCT 33295.8222  
    QMUNI2 ZMUNI3_PCT 2141.7618   
    QMUNI2 ZMUNI4_PCT 2317.71469  
    QMUNI2 ZMUNI5_PCT 5.3405999999
    QMUNI2 ZMUNI6_PCT 16.3079     
    QMUNI2 ZMUNI7_PCT 462.1506    
    QMUNI2 ZMUNI8_PCT 574.8748    
    QMUNI2 ZMUNI9_PCT 314.9033    
    QMUNI3 OBJROW 1.          
    QMUNI3 ZMUNI1_PCT 3827.7626   
    QMUNI3 ZMUNI2_PCT 2215.004    
    QMUNI3 ZMUNI3_PCT 29695.7016  
    QMUNI3 ZMUNI4_PCT 4738.61694  
    QMUNI3 ZMUNI5_PCT 267.4103    
    QMUNI3 ZMUNI6_PCT 304.2222    
    QMUNI3 ZMUNI7_PCT 1048.0881   
    QMUNI3 ZMUNI8_PCT 816.3452    
    QMUNI3 ZMUNI9_PCT  -73.0514   
    QMUNI4 OBJROW 1.          
    QMUNI4 ZMUNI1_PCT 3030.014    
    QMUNI4 ZMUNI2_PCT 2686.5006   
    QMUNI4 ZMUNI3_PCT 5187.2254   
    QMUNI4 ZMUNI4_PCT 104594.56444
    QMUNI4 ZMUNI5_PCT 311.8515    
    QMUNI4 ZMUNI6_PCT 333.8814    
    QMUNI4 ZMUNI7_PCT 1015.2817   
    QMUNI4 ZMUNI8_PCT 889.3966    
    QMUNI4 ZMUNI9_PCT 257.6828    
    QMUNI5 OBJROW 1.          
    QMUNI5 ZMUNI1_PCT  -190.2581  
    QMUNI5 ZMUNI2_PCT  -364.3035  
    QMUNI5 ZMUNI3_PCT  -253.2959  
    QMUNI5 ZMUNI4_PCT  -235.60524 
    QMUNI5 ZMUNI5_PCT 33888.2446  
    QMUNI5 ZMUNI6_PCT 2347.8508   
    QMUNI5 ZMUNI7_PCT  -438.6902  
    QMUNI5 ZMUNI8_PCT  -665.0925  
    QMUNI5 ZMUNI9_PCT  -925.4455  
    QMUNI6 OBJROW 1.          
    QMUNI6 ZMUNI1_PCT 410.1753    
    QMUNI6 ZMUNI2_PCT 145.5307    
    QMUNI6 ZMUNI3_PCT 300.5982    
    QMUNI6 ZMUNI4_PCT 210.85739   
    QMUNI6 ZMUNI5_PCT 3221.8933   
    QMUNI6 ZMUNI6_PCT 32327.7474  
    QMUNI6 ZMUNI7_PCT 693.8934    
    QMUNI6 ZMUNI8_PCT 341.6061    
    QMUNI6 ZMUNI9_PCT 42.9154     
    QMUNI7 OBJROW 1.          
    QMUNI7 ZMUNI1_PCT 894.2604    
    QMUNI7 ZMUNI2_PCT 229.2634    
    QMUNI7 ZMUNI3_PCT 699.997     
    QMUNI7 ZMUNI4_PCT 459.95712   
    QMUNI7 ZMUNI5_PCT  -230.4077  
    QMUNI7 ZMUNI6_PCT  -59.6046   
    QMUNI7 ZMUNI7_PCT 28884.5062  
    QMUNI7 ZMUNI8_PCT 1376.152    
    QMUNI7 ZMUNI9_PCT  -491.7145  
    QMUNI8 OBJROW 1.          
    QMUNI8 ZMUNI1_PCT 897.5029    
    QMUNI8 ZMUNI2_PCT 647.1634    
    QMUNI8 ZMUNI3_PCT 887.6801    
    QMUNI8 ZMUNI4_PCT 669.28863   
    QMUNI8 ZMUNI5_PCT 289.5355    
    QMUNI8 ZMUNI6_PCT 301.4565    
    QMUNI8 ZMUNI7_PCT 1938.8199   
    QMUNI8 ZMUNI8_PCT 27427.864   
    QMUNI8 ZMUNI9_PCT 497.0551    
    QMUNI9 OBJROW 1.          
    QMUNI9 ZMUNI1_PCT 192.7376    
    QMUNI9 ZMUNI2_PCT 462.1506    
    QMUNI9 ZMUNI3_PCT 269.8899    
    QMUNI9 ZMUNI4_PCT 232.2197    
    QMUNI9 ZMUNI5_PCT  -154.8767  
    QMUNI9 ZMUNI6_PCT  -155.6396  
    QMUNI9 ZMUNI7_PCT 70.7626     
    QMUNI9 ZMUNI8_PCT 507.9269    
    QMUNI9 ZMUNI9_PCT 25519.9433  
RHS
    RHS ZMUNI1_PCT 0.2491503575
    RHS ZMUNI2_PCT 0.2484549063
    RHS ZMUNI3_PCT 0.1661729004
    RHS ZMUNI4_PCT 0.0876286843
    RHS ZMUNI5_PCT 0.0200990076
    RHS ZMUNI6_PCT 0.1190366947
    RHS ZMUNI7_PCT 0.0518734315
    RHS ZMUNI8_PCT 0.1119525663
    RHS ZMUNI9_PCT -0.056568174
BOUNDS
 LO BOUND QMUNI1 -0.000964555
 UP BOUND QMUNI1      1.1e+10
 LO BOUND QMUNI2 -0.000662843
 UP BOUND QMUNI2      1.1e+10
 LO BOUND QMUNI3 -0.000703394
 UP BOUND QMUNI3      1.1e+10
 LO BOUND QMUNI4 -0.0002739  
 UP BOUND QMUNI4      1.1e+10
 LO BOUND QMUNI5 -0.00050592 
 UP BOUND QMUNI5      1.1e+10
 LO BOUND QMUNI6 -0.000682321
 UP BOUND QMUNI6      1.1e+10
 LO BOUND QMUNI7 -0.00031026 
 UP BOUND QMUNI7      1.1e+10
 LO BOUND QMUNI8 -0.000421789
 UP BOUND QMUNI8      1.1e+10
 LO BOUND QMUNI9 -0.000486209
 UP BOUND QMUNI9      1.1e+10
ENDATA
